
  32    1
  10

   0   0   3 2 3 4 
   5   3   4 13 9 8 5 
   4   2   5 13 12 11 10 7 
   9  10   4 12 11 10 7 
   8   5   2 11 6 
   8   5   3 15 14 12 
   1   9   4 17 16 15 14 
   8   8   2 15 10 
   5   8   3 17 16 15 
  10   5   3 20 17 14 
  10   6   3 20 17 14 
   2   4   2 17 16 
   6   3   2 15 14 
   4   6   2 22 18 
   1   7   4 22 21 20 19 
   1   7   4 25 22 21 20 
   8   5   1 18 
   1   6   4 25 24 21 19 
   7   4   2 26 23 
   3   8   2 24 23 
  10   9   5 31 30 29 28 26 
   1   7   2 31 24 
   6   7   5 31 30 29 28 27 
  10   6   4 30 29 28 27 
   5   7   1 26 
  10   3   1 27 
   1   7   1 32
  10   4   1 32
   9   6   1 32
   3   8   1 32
   4   5   1 32
   0   0   0 
